20400.4
20400.4
20400.4
20400.4
20400.4
20400.4
20179.4
19856.6
19856.6
19751.1
19751.1
19107.3
19107.3
19107.3
19107.3
19107.3
19107.3
19046.8
19046.8
19046.8
19046.8
18972
18348.9
18348.9
18348.9
18348.9
18317.5
18317.5
18317.5
17909.1
17909.1
17909.1
17909.1
17909.1
17771.3
17771.3
17690.3
17690.3
17690.3
17690.3
17690.3
17690.3
17394.3
17394.3
17394.3
17394.3
17394.3
17394.3
17287.8
17287.8
17287.8
17287.8
17287.8
17287.8
17287.8
17068.3
17068.3
16935.7
16935.7
16935.7
16935.7
16935.7
16916.8
16916.8
16916.8
16822.5
16822.5
16820.2
16820.2
16820.2
16820.2
16459.7
16459.7
16459.7
16381.6
16381.6
16381.6
16381.6
16381.6
16381.6
16381.6
16381.6
16381.6
16324.5
16318.2
16090.3
16090.3
16090.3
16090.3
15981.6
15981.6
15981.6
15981.6
15981.6
15981.6
15981.6
15981.6
15793.4
15793.4
15793.4
